GeneratedTests/Random_8/Random_8_18.tsp
NAME: Random_8_18
TYPE: TSP
DIMENSION: 8
EDGE_WEIGHT_TYPE: EUC_2D
NODE_COORD_SECTION
1 20.07037 4.8410625
2 20.080956 1.6866989
3 11.553221 8.325116
4 20.28244 9.710493
5 19.164427 1.9699273
6 18.549198 1.2312841
7 13.151756 11.716181
8 19.60337 2.479261
EOF
