GeneratedTests/Random_8/Random_8_18.txt
NAME: Random_8_18
TYPE: TSP
DIMENSION: 8
EDGE_WEIGHT_TYPE: EUC_2D
NODE_COORD_SECTION
1 2.9669566 22.611872
2 9.078245 14.932304
3 8.88206 9.650755
4 4.6822014 12.548427
5 10.159502 4.3722954
6 19.659058 15.949503
7 16.716698 3.258575
8 16.643873 17.588175
EOF
